\* The Paper-cutting problem *\
Minimize
Total_Number_of_Rolls_to_Fulfill_the_Orders: 0x0x2x0 + 0x3x0x0 + 1x1x0x1
Subject To
_C1: 3 0x3x0x0 >= 395
min_14"_orders: 1x1x0x1 >= 211
min_31"_orders: 1x1x0x1 >= 395
min_36"_orders: 2 0x0x2x0 >= 610
min_45"_orders: 1x1x0x1 >= 97
End
